
Gurobi 11.0.1 (win64) logging started Wed May 15 12:30:23 2024

Set parameter LogFile to value "output/solver_log5.txt"
Gurobi Optimizer version 11.0.1 build v11.0.1rc0 (win64 - Windows 11.0 (22631.2))

CPU model: 11th Gen Intel(R) Core(TM) i7-1165G7 @ 2.80GHz, instruction set [SSE2|AVX|AVX2|AVX512]
Thread count: 4 physical cores, 8 logical processors, using up to 8 threads

Optimize a model with 2151 rows, 386 columns and 39671 nonzeros
Model fingerprint: 0x70e1bead
Variable types: 248 continuous, 138 integer (138 binary)
Coefficient statistics:
  Matrix range     [4e-01, 1e+05]
  Objective range  [1e+00, 1e+02]
  Bounds range     [1e+00, 1e+00]
  RHS range        [1e-02, 1e+05]

User MIP start produced solution with objective 75730.2 (0.00s)
User MIP start produced solution with objective 75730.2 (0.01s)
Loaded user MIP start with objective 75730.2

Presolve removed 93 rows and 93 columns
Presolve time: 0.04s
Presolved: 2058 rows, 293 columns, 39152 nonzeros
Variable types: 228 continuous, 65 integer (65 binary)

Root relaxation: objective 7.578348e+04, 531 iterations, 0.03 seconds (0.06 work units)

    Nodes    |    Current Node    |     Objective Bounds      |     Work
 Expl Unexpl |  Obj  Depth IntInf | Incumbent    BestBd   Gap | It/Node Time

     0     0 75783.4808    0    3 75730.1531 75783.4808  0.07%     -    0s
H    0     0                    75783.480812 75783.4808  0.00%     -    0s
     0     0 75783.4808    0    3 75783.4808 75783.4808  0.00%     -    0s

Explored 1 nodes (531 simplex iterations) in 0.15 seconds (0.23 work units)
Thread count was 8 (of 8 available processors)

Solution count 3: 75783.5 75783.5 75730.2 

Optimal solution found (tolerance 1.00e-04)
Best objective 7.578348081163e+04, best bound 7.578348081163e+04, gap 0.0000%
